p cnf 24 54
-11 17 0
-22 0
-11 24 0
2 9 0
-14 -8 -7 2 0
7 14 0
-4 0
-4 -3 -2 2 0
-7 5 0
-11 9 0
-2 14 0
15 16 0
-21 -12 -11 2 0
3 4 0
-15 0
-23 -19 -11 7 0
-24 -22 -11 11 0
-2 3 0
-15 15 0
-16 -15 -7 7 0
19 23 0
-7 13 0
-22 22 0
9 10 0
7 17 0
-8 6 0
-19 18 0
-6 -5 -2 7 0
-10 12 0
11 21 0
-6 8 0
-2 21 0
-7 23 0
11 24 0
7 16 0
-2 1 0
-13 7 0
2 3 0
2 5 0
-7 16 0
-12 10 0
5 6 0
11 23 0
-10 -9 -2 11 0
-18 -17 -7 11 0
17 18 0
-4 4 0
22 24 0
-18 19 0
-11 20 0
12 21 0
8 14 0
-1 2 0
-20 11 0
c weights 3.4 1.0 1.0 1.0 8.0 1.0 1.0 1.0 8.0 1.0 1.0 1.0 1.0 1.0 1.0 1.0 8.0 1.0 1.0 1.0 1.0 1.0 1.0 1.0 3.4 1.0 8.0 1.0 1.0 1.0 8.0 1.0 8.0 1.0 1.0 1.0 1.0 1.0 3.4 1.0 8.0 1.0 1.0 1.0 8.0 1.0 8.0 1.0

